213
400
320	3
319	3
318	2
317	2
316	3
315	1
313	2
312	2
311	3
310	2
309	1
308	1
307	2
306	1
305	5
304	5
303	4
302	1
301	1
300	3
299	4
298	2
297	2
296	2
295	1
294	2
293	1
290	3
289	2
288	1
287	1
285	5
283	2
282	1
281	3
280	2
279	3
278	2
277	1
275	2
273	4
272	3
271	2
270	1
269	2
268	3
267	3
266	1
265	2
264	3
263	2
262	2
261	2
260	2
258	1
257	2
256	1
255	3
253	3
252	2
251	5
250	3
249	4
248	3
247	3
246	2
245	3
244	3
243	2
242	1
241	3
240	3
239	3
238	2
237	1
236	1
234	2
233	3
232	2
231	3
230	5
228	2
227	3
226	1
225	2
224	2
222	2
221	2
220	3
219	4
218	4
216	3
215	1
214	2
213	3
212	3
209	3
208	1
207	1
206	4
205	2
204	3
203	2
202	3
201	1
200	1
199	4
198	5
197	1
196	3
195	3
193	1
192	2
191	1
190	3
189	1
188	3
186	2
185	3
184	2
183	2
181	2
180	2
179	3
178	3
177	1
176	1
175	2
174	3
173	2
172	3
171	4
169	2
167	1
166	3
164	3
162	6
161	4
160	5
159	2
158	2
157	5
154	2
152	3
151	2
150	3
149	2
148	1
147	3
146	1
145	1
144	4
143	2
142	2
141	6
140	2
139	2
138	1
137	2
136	4
135	3
134	2
133	1
132	3
131	1
130	1
129	3
128	1
127	5
126	1
125	1
124	4
123	1
122	2
121	2
120	2
119	3
118	1
117	1
116	3
115	2
114	2
113	2
112	1
110	5
108	4
107	1
106	4
105	3
104	1
103	1
102	3
101	3
100	3
99	1
98	1
97	2
96	2
95	1
94	2
93	2
92	2
91	1
90	2
89	2
87	3
86	3
85	3
84	2
83	3
82	2
81	1
80	3
